%%%mzn-stat: initTime=0.002266009
%%%mzn-stat: objective=377
%%%mzn-stat: nodes=909
%%%mzn-stat: restarts=0
%%%mzn-stat: peakDepth=72
%%%mzn-stat: solveTime=0.073503936
%%%mzn-stat: variables=220
%%%mzn-stat: propagators=137
%%%mzn-stat: failures=811
%%%mzn-stat: propagations=51604
%%%mzn-stat: nogoods=811
%%%mzn-stat: AverageConflictSize=9.795314426633785
%%%mzn-stat: NumUnitNogoodsLearned=376
%%%mzn-stat: AverageLearnedNogoodLength=9.753390875462392
%%%mzn-stat: AverageBacktrackAmount=0
%%%mzn-stat: AverageLbd=3.381011097410604
%%%mzn-stat-end
maxleg = 377;
succ = array1d(1..20,[4, 13, 7, 8, 14, 1, 9, 2, 15, 20, 10, 5, 3, 6, 19, 12, 11, 16, 17, 18]);
% time elapsed: 1.70 s
----------
==========
% time elapsed: 1.70 s
%%%mzn-stat: initTime=0.002266009
%%%mzn-stat: objective=377
%%%mzn-stat: nodes=909
%%%mzn-stat: restarts=0
%%%mzn-stat: peakDepth=72
%%%mzn-stat: solveTime=0.073509672
%%%mzn-stat: variables=220
%%%mzn-stat: propagators=137
%%%mzn-stat: failures=811
%%%mzn-stat: propagations=51604
%%%mzn-stat: nogoods=811
%%%mzn-stat: AverageConflictSize=9.795314426633785
%%%mzn-stat: NumUnitNogoodsLearned=376
%%%mzn-stat: AverageLearnedNogoodLength=9.753390875462392
%%%mzn-stat: AverageBacktrackAmount=0
%%%mzn-stat: AverageLbd=3.381011097410604
%%%mzn-stat-end
